NAME : zqloutput/eax-hard-simple-rescaleandround/50-98.tsp
TYPE : TSP
DIMENSION : 50
EDGE_WEIGHT_TYPE : EUC_2D
NODE_COORD_SECTION
1 430696 850805
2 568591 396789
3 400424 41281
4 550411 652929
5 403664 164530
6 936445 892215
7 430896 334577
8 203720 883694
9 202807 447570
10 62517 43697
11 282929 124442
12 68896 164440
13 788675 619496
14 871020 249787
15 840159 495083
16 306739 247780
17 14481 588309
18 772561 553279
19 502745 409048
20 486178 399448
21 536403 497586
22 616228 806916
23 701279 358944
24 529871 823342
25 168590 731349
26 800810 509288
27 365063 678029
28 945071 455157
29 895755 43504
30 841274 843096
31 984595 616629
32 373103 424800
33 519579 130872
34 924679 186684
35 539518 975536
36 707873 971249
37 91761 647553
38 947003 821429
39 801249 361891
40 237957 600866
41 455022 631613
42 23975 812803
43 942445 859891
44 968916 787270
45 563733 594477
46 926943 452725
47 717625 767375
48 968492 798209
49 813825 176217
50 515293 211417
EOF
